1101
1120
1138
1103
982
982
982
1020
1008
1008
1008
1028
1028
1028
1028
998
998
998
998
998
998
998
998
998
998
1017
1013
977
977
977
1009
884
884
884
884
1017
1017
1017
1017
1057
1027
1037
1037
1037
1036
983
983
983
1037
1056
939
1003
1003
998
930
930
927
927
1002
1003
1003
1003
897
897
897
897
897
897
897
897
990
992
992
992
947
947
947
947
960
983
1048
1051
854
953
1072
950
1005
1005
937
937
1038
1038
1027
1022
963
963
1070
998
1011
1011
1011
1054
1043
1016
1016
991
991
1045
915
915
949
949
949
949
949
949
954
926
926
1004
1004
1004
993
993
993
993
1015
995
995
879
928
928
914
914
914
965
1003
1003
1000
1000
959
959
959
1024
995
926
926
987
907
907
907
907
897
907
907
907
955
926
926
926
926
953
953
890
890
890
890
890
913
866
866
866
917
917
993
993
927
927
822
822
822
822
896
896
929
947
947
947
959
949
959
925
1002
858
858
858
942
942
942
942
